Optimal - objective value 5.96635642
      0 C0000000           49700                      -0
      1 C0000001           49700                      -0
      2 C0000002               1                      -0
      3 C0000003               2                      -0
      4 C0000004               3                      -0
      5 C0000005               1                      -0
      6 C0000006               1                      -0
      7 C0000007               1                      -0
      8 C0000008               0                      -0
      9 C0000009               0                      -0
     10 C0000010               1                      -0
     11 C0000011               0                      -0
     12 C0000012               0                      -0
     13 C0000013               0                      -0
     14 C0000014               1                      -0
     15 C0000015               0                      -0
     16 C0000016               0                      -0
     17 C0000017               1                      -0
     18 C0000018               1                      -0
     19 C0000019               1                      -0
     20 C0000020               1                      -0
     21 C0000021               0                      -0
     22 C0000022               0                      -0
     23 C0000023               1                      -0
     24 C0000024               0                      -0
     25 C0000025               0                      -0
     26 C0000026               2                      -0
     27 C0000027               0                      -0
     28 C0000028               0                      -0
     29 C0000029               0                      -0
     30 C0000030               0                      -0
     31 C0000031               0                      -0
     32 C0000032               0                      -0
     33 C0000033               0                      -0
     34 C0000034               0                      -0
     35 C0000035               0                      -0
     36 C0000036               0                      -0
     37 C0000037               0                      -0
     38 C0000038               0                      -0
     39 C0000039               0                      -0
     40 C0000040               0                      -0
     41 C0000041               1                      -0
     42 C0000042               0                      -0
     43 C0000043               0                      -0
     44 C0000044               0                      -0
     45 C0000045               0                      -0
     46 C0000046               1                      -0
     47 C0000047               0                      -0
     48 C0000048               0                      -0
     49 C0000049               0                      -0
     50 C0000050               0                      -0
     51 C0000051               0                      -0
     52 C0000052               0                      -0
     53 C0000053               0                      -0
     54 C0000054               0                      -0
     55 C0000055               0                      -0
     56 C0000056               0                      -0
     57 C0000057               0                      -0
     58 C0000058               0                      -0
     59 C0000059               0                      -0
     60 C0000060               0                      -0
     61 C0000061               0                      -0
     62 C0000062               0                      -0
     63 C0000063               0                      -0
     64 C0000064               0                      -0
     65 C0000065               0                      -0
     66 C0000066               0                      -0
     67 C0000067               0                      -0
     68 C0000068               0                      -0
     69 C0000069               0                      -0
     70 C0000070               1                      -0
     71 C0000071               0                      -0
     72 C0000072               0                      -0
     73 C0000073               0                      -0
     74 C0000074               1                      -0
     75 C0000075               0                      -0
     76 C0000076               0                      -0
     77 C0000077               0                      -0
     78 C0000078               0                      -0
     79 C0000079               0                      -0
     80 C0000080               0                      -0
     81 C0000081               0                      -0
     82 C0000082               0                      -0
     83 C0000083               0                      -0
     84 C0000084               0                      -0
     85 C0000085               0                      -0
     86 C0000086               1                      -0
     87 C0000087               0                      -0
     88 C0000088               0                      -0
     89 C0000089               0                      -0
     90 C0000090               0                      -0
     91 C0000091               0                      -0
     92 C0000092               0                      -0
     93 C0000093               0                      -0
     94 C0000094               1                      -0
     95 C0000095               0                      -0
     96 C0000096               0                      -0
     97 C0000097               0                      -0
     98 C0000098               0                      -0
     99 C0000099               0                      -0
    100 C0000100               0                      -0
    101 C0000101               0                      -0
    102 C0000102               0                      -0
    103 C0000103               0                      -0
    104 C0000104               0                      -0
    105 C0000105               0                      -0
    106 C0000106               0                      -0
    107 C0000107               0                      -0
    108 C0000108               0                      -0
    109 C0000109               0                      -0
    110 C0000110               0                      -0
    111 C0000111               0                      -0
    112 C0000112               0                      -0
    113 C0000113               0                      -0
    114 C0000114               0                      -0
    115 C0000115               0                      -0
    116 C0000116               0                      -0
    117 C0000117               0                      -0
    118 C0000118               0                      -0
    119 C0000119               0                      -0
    120 C0000120               0                      -0
    121 C0000121               0                      -0
    122 C0000122               0                      -0
    123 C0000123               0                      -0
    124 C0000124               0                      -0
    125 C0000125               0                      -0
    126 C0000126               0                      -0
    127 C0000127               0                      -0
    128 C0000128               0                      -0
    129 C0000129               0                      -0
    130 C0000130               0                      -0
    131 C0000131               0                      -0
    132 C0000132               0                      -0
    133 C0000133               0                      -0
    134 C0000134               0                      -0
    135 C0000135               0                      -0
    136 C0000136               0                      -0
    137 C0000137               0                      -0
    138 C0000138               0                      -0
    139 C0000139               0                      -0
    140 C0000140               0                      -0
    141 C0000141               1                      -0
    142 C0000142               1                      -0
    143 C0000143               0                      -0
    144 C0000144               0                      -0
    145 C0000145               0                      -0
    146 C0000146               0                      -0
    147 C0000147               0                      -0
    148 C0000148               0                      -0
    149 C0000149               0                      -0
    150 C0000150               0                      -0
    151 C0000151               0                      -0
    152 C0000152               0                      -0
    153 C0000153               0                      -0
    154 C0000154               0                      -0
    155 C0000155               0                      -0
    156 C0000156               0                      -0
    157 C0000157               0                      -0
    158 C0000158               0                      -0
    159 C0000159               1                      -0
    160 C0000160               0                      -0
    161 C0000161               0                      -0
    162 C0000162               0                      -0
    163 C0000163               0                      -0
    164 C0000164               0                      -0
    165 C0000165               0                      -0
    166 C0000166               0                      -0
    167 C0000167               0                      -0
    168 C0000168               0                      -0
    169 C0000169               0                      -0
    170 C0000170               0                      -0
    171 C0000171               0                      -0
    172 C0000172               0                      -0
    173 C0000173               0                      -0
    174 C0000174               0                      -0
    175 C0000175               0                      -0
    176 C0000176               0                      -0
    177 C0000177               0                      -0
    178 C0000178               0                      -0
    179 C0000179               0                      -0
    180 C0000180               0                      -0
    181 C0000181               0                      -0
    182 C0000182               0                      -0
    183 C0000183               0                      -0
    184 C0000184               0                      -0
    185 C0000185               0                      -0
    186 C0000186               0                      -0
    187 C0000187               0                      -0
    188 C0000188               0                      -0
    189 C0000189               0                      -0
    190 C0000190               0                      -0
    191 C0000191               0                      -0
    192 C0000192               0                      -0
    193 C0000193               0                      -0
    194 C0000194               0                      -0
    195 C0000195          100.44                      -0
    196 C0000196          139.97                      -0
    197 C0000197               7                      -0
    198 C0000198               6                      -0
    199 C0000199               5                      -0
    200 C0000200               4                      -0
    201 C0000201               7                      -0
    202 C0000202               5                      -0
    203 C0000203               5                      -0
    204 C0000204               5                      -0
    205 C0000205               5                      -0
    206 C0000206               6                      -0
    207 C0000207               4                      -0
    208 C0000208               7                      -0
    209 C0000209               6                      -0
    210 C0000210               6                      -0
    211 C0000211               6                      -0
    212 C0000212               5                      -0
    213 C0000213               6                      -0
    214 C0000214               6                      -0
    215 C0000215               5                      -0
    216 C0000216               7                      -0
    217 C0000217               6                      -0
    218 C0000218               6                      -0
    219 C0000219               4                      -0
    220 C0000220               5                      -0
    221 C0000221               5                      -0
    222 C0000222               5                      -0
    223 C0000223               6                      -0
    224 C0000224               5                      -0
    225 C0000225               5                      -0
    226 C0000226               5                      -0
    227 C0000227               6                      -0
    228 C0000228               5                      -0
    229 C0000229               5                      -0
    230 C0000230               5                      -0
    231 C0000231               6                      -0
    232 C0000232               5                      -0
    233 C0000233               6                      -0
    234 C0000234               4                      -0
    235 C0000235               5                      -0
    236 C0000236               4                      -0
    237 C0000237               4                      -0
    238 C0000238               5                      -0
    239 C0000239               7                      -0
    240 C0000240               5                      -0
    241 C0000241               5                      -0
    242 C0000242               6                      -0
    243 C0000243               5                      -0
    244 C0000244               4                      -0
    245 C0000245               6                      -0
    246 C0000246               5                      -0
    247 C0000247               6                      -0
    248 C0000248               6                      -0
    249 C0000249               4                      -0
    250 C0000250               4                      -0
    251 C0000251               4                      -0
    252 C0000252               4                      -0
    253 C0000253               6                      -0
    254 C0000254               5                      -0
    255 C0000255               5                      -0
    256 C0000256               5                      -0
    257 C0000257               7                      -0
    258 C0000258               5                      -0
    259 C0000259               6                      -0
    260 C0000260               5                      -0
    261 C0000261               4                      -0
    262 C0000262               7                      -0
    263 C0000263               5                      -0
    264 C0000264               5                      -0
    265 C0000265               7                      -0
    266 C0000266               5                      -0
    267 C0000267               5                      -0
    268 C0000268               5                      -0
    269 C0000269               6                      -0
    270 C0000270               5                      -0
    271 C0000271               4                      -0
    272 C0000272               5                      -0
    273 C0000273               5                      -0
    274 C0000274               4                      -0
    275 C0000275               5                      -0
    276 C0000276               6                      -0
    277 C0000277               6                      -0
    278 C0000278               6                      -0
    279 C0000279               6                      -0
    280 C0000280               5                      -0
    281 C0000281               5                      -0
    282 C0000282               6                      -0
    283 C0000283               5                      -0
    284 C0000284               5                      -0
    285 C0000285               5                      -0
    286 C0000286               5                      -0
    287 C0000287               5                      -0
      0 X0000000               0             -0.21524622
      1 X0000001               0              0.65938663
      2 X0000002               0              0.65938663
      3 X0000003               0              0.53883502
      4 X0000004               0              0.53883502
      5 X0000005               1              0.98502988
      6 X0000006               0              0.52458765
      7 X0000007               0              0.52458765
      8 X0000008               0              0.25610061
      9 X0000009               0              0.25610061
     10 X0000010               0                       1
     11 X0000011               0              0.44873507
     12 X0000012               0              0.44873507
     13 X0000013               0              0.46955749
     14 X0000014               0              0.46955749
     15 X0000015               0               0.4193327
     16 X0000016               0               0.4193327
     17 X0000017               0              0.33660098
     18 X0000018               0              0.33660098
     19 X0000019               0              0.64048464
     20 X0000020               0              0.64048464
     21 X0000021               0              0.31181529
     22 X0000022               0              0.31181529
     23 X0000023               0              0.62120823
     24 X0000024               0              0.18991134
     25 X0000025               0              0.18991134
     26 X0000026               0            -0.058109653
     27 X0000027               0            -0.058109653
     28 X0000028               0               0.1138282
     29 X0000029               0             0.031321944
     30 X0000030               0             0.031321944
     31 X0000031               0              0.26649242
     32 X0000032               0              0.67925699
     33 X0000033               0              0.67925699
     34 X0000034               1              0.29043418
     35 X0000035               0              0.16725506
     36 X0000036               0              0.16725506
     37 X0000037               0              0.50617542
     38 X0000038               0              0.50617542
     39 X0000039               0              0.43058569
     40 X0000040               0              0.43058569
     41 X0000041               0               0.5074966
     42 X0000042               0               0.5074966
     43 X0000043               0              0.58721867
     44 X0000044               0              0.58721867
     45 X0000045               0              0.64107567
     46 X0000046               0              0.64107567
     47 X0000047               0              0.82969935
     48 X0000048               0             -0.16038526
     49 X0000049               0              0.86537176
     50 X0000050               0              0.66664719
     51 X0000051               0              0.48662346
     52 X0000052               0              0.48662346
     53 X0000053               0              0.15933833
     54 X0000054               0              0.15933833
     55 X0000055               0              0.17214536
     56 X0000056               0              0.73539814
     57 X0000057               0              0.73539814
     58 X0000058               0             0.090947525
     59 X0000059               0             0.090947525
     60 X0000060               0               0.6375889
     61 X0000061               0               0.6375889
     62 X0000062               0              0.28591845
     63 X0000063               0              0.28591845
     64 X0000064               0              0.22938538
     65 X0000065               0             -0.11726655
     66 X0000066               0              0.50530451
     67 X0000067               0              0.50530451
     68 X0000068               0              0.10794183
     69 X0000069               0              0.10794183
     70 X0000070               0              0.42580314
     71 X0000071               0              0.42580314
     72 X0000072               0              0.47235288
     73 X0000073               0              0.47235288
     74 X0000074               0                0.659228
     75 X0000075               1                0.659228
     76 X0000076               0              0.45363079
     77 X0000077               0              0.45363079
     78 X0000078               0             0.079795984
     79 X0000079               0             0.079795984
     80 X0000080               0               0.2408394
     81 X0000081               0               0.2408394
     82 X0000082               0              0.37569035
     83 X0000083               0              0.37569035
     84 X0000084               0               0.6653189
     85 X0000085               0               0.6653189
     86 X0000086               0              0.35917963
     87 X0000087               0              0.35917963
     88 X0000088               0              0.63635924
     89 X0000089               0              0.63635924
     90 X0000090               0              0.52273324
     91 X0000091               0              0.52273324
     92 X0000092               0              0.53391147
     93 X0000093               0              0.53391147
     94 X0000094               0              0.35361006
     95 X0000095               0              0.35361006
     96 X0000096               0              0.27940445
     97 X0000097               0              0.27940445
     98 X0000098               0              0.22280014
     99 X0000099               0              0.22280014
    100 X0000100               0              0.20999977
    101 X0000101               0              0.20999977
    102 X0000102               0              0.17526354
    103 X0000103               0              0.90442914
    104 X0000104               0              0.52770901
    105 X0000105               0              0.52770901
    106 X0000106               0              0.76732989
    107 X0000107               0              0.84321913
    108 X0000108               0              0.25931478
    109 X0000109               0              0.25931478
    110 X0000110               0               0.2036478
    111 X0000111               0               0.5472018
    112 X0000112               0               0.5472018
    113 X0000113               0               0.2788853
    114 X0000114               0              0.54866001
    115 X0000115               0              0.54866001
    116 X0000116               0              0.93891879
    117 X0000117               0              0.69169333
    118 X0000118               1              0.69169333
    119 X0000119               0             -0.11591374
    120 X0000120               0              0.29283862
    121 X0000121               0              0.29283862
    122 X0000122               0              0.50075748
    123 X0000123               0              0.50075748
    124 X0000124               0              0.22546568
    125 X0000125               0              0.22546568
    126 X0000126               0              0.72381936
    127 X0000127               0              0.72381936
    128 X0000128               0             0.029768892
    129 X0000129               0             0.029768892
    130 X0000130               0              0.16644744
    131 X0000131               0              0.81004745
    132 X0000132               1              0.81004745
    133 X0000133               0              0.61367709
    134 X0000134               0              0.61367709
    135 X0000135               0              0.60799461
    136 X0000136               1              0.60799461
    137 X0000137               0              0.66628273
    138 X0000138               0              0.70203137
    139 X0000139               1              0.70203137
    140 X0000140               0               0.5005435
    141 X0000141               0               0.5005435
    142 X0000142               0              0.58366676
    143 X0000143               0              0.58366676
    144 X0000144               0              0.97588957
    145 X0000145               0               0.6163984
    146 X0000146               0               0.6163984
    147 X0000147               0              0.56679568
    148 X0000148               0              0.56679568
    149 X0000149               0              0.89771383
    150 X0000150               0              0.31360883
    151 X0000151               0              0.31360883
    152 X0000152               0              0.43556819
    153 X0000153               0              0.43556819
    154 X0000154               0              0.53797024
    155 X0000155               0              0.53797024
    156 X0000156               0             -0.11571236
    157 X0000157               0              0.85086127
    158 X0000158               0              0.54487556
    159 X0000159               0              0.54487556
    160 X0000160               0               0.5540553
    161 X0000161               0               0.5540553
    162 X0000162               0              0.54306053
    163 X0000163               0              0.54306053
    164 X0000164               0              0.17482529
    165 X0000165               0              0.17482529
    166 X0000166               0               0.8362841
    167 X0000167               0              0.51364361
    168 X0000168               0              0.51364361
    169 X0000169               0              0.62858112
    170 X0000170               0              0.62858112
    171 X0000171               0              0.33990129
    172 X0000172               0              0.33990129
    173 X0000173               0              0.53937083
    174 X0000174               0              0.53937083
    175 X0000175               0              0.18717698
    176 X0000176               0              0.18717698
    177 X0000177               0              0.14785538
    178 X0000178               0              0.14785538
    179 X0000179               0               0.5263147
    180 X0000180               0               0.5263147
    181 X0000181               0               0.3477677
    182 X0000182               0               0.3477677
    183 X0000183               0              0.58232852
    184 X0000184               0              0.58232852
    185 X0000185               0              0.36675427
    186 X0000186               0              0.36675427
    187 X0000187               0              0.73870296
    188 X0000188               0              0.59016422
    189 X0000189               0              0.59016422
    190 X0000190               0             -0.24103935
    191 X0000191               0              0.64774089
    192 X0000192               0              0.67871853
    193 X0000193               1              0.67871853
    194 X0000194               0              0.33453174
    195 X0000195               0              0.33453174
    196 X0000196               0              0.55976934
    197 X0000197               0              0.55976934
    198 X0000198               0              0.79549696
    199 X0000199               0               0.7770445
    200 X0000200               0              0.18820378
    201 X0000201               0              0.18820378
    202 X0000202               0              0.75181999
    203 X0000203               0              0.51672354
    204 X0000204               0              0.51672354
    205 X0000205               0              0.34175152
    206 X0000206               0              0.34175152
    207 X0000207               0              0.34426901
    208 X0000208               0              0.34426901
    209 X0000209               0              0.42979605
    210 X0000210               0              0.42979605
    211 X0000211               0             0.064809823
    212 X0000212               0             0.064809823
    213 X0000213               0              0.32138984
    214 X0000214               0              0.32138984
    215 X0000215               0             -0.12204217
    216 X0000216               0              0.35766306
    217 X0000217               0              0.35766306
    218 X0000218               0              0.40966935
    219 X0000219               0              0.40966935
    220 X0000220               0              0.67050018
    221 X0000221               0              0.67050018
    222 X0000222               0              0.21825272
    223 X0000223               0              0.21825272
    224 X0000224               0              -0.1405272
    225 X0000225               0              0.20514013
    226 X0000226               0              0.23020246
    227 X0000227               0              0.23020246
    228 X0000228               0              0.42340867
    229 X0000229               0              0.42340867
    230 X0000230               0              0.43905493
    231 X0000231               0              0.43905493
    232 X0000232               0             -0.18198098
    233 X0000233               0             -0.18198098
    234 X0000234               0              0.41853589
    235 X0000235               0              0.41853589
    236 X0000236               0              0.15131064
    237 X0000237               0              0.15131064
    238 X0000238               0              0.73068647
    239 X0000239               0              0.44874183
    240 X0000240               0              0.44874183
    241 X0000241               0              0.63949657
    242 X0000242               0              0.63949657
    243 X0000243               0             -0.17145514
    244 X0000244               0               0.4807501
    245 X0000245               0               0.4807501
    246 X0000246               0               0.2750306
    247 X0000247               0               0.2750306
    248 X0000248               0              0.68259537
    249 X0000249               0              0.68259537
    250 X0000250               0              0.69494632
    251 X0000251               0              0.69494632
    252 X0000252               0             0.030308096
    253 X0000253               0             0.030308096
    254 X0000254               0             -0.13936089
    255 X0000255               0              0.50508593
    256 X0000256               0              0.50508593
    257 X0000257               0              0.40846483
    258 X0000258               0              0.40846483
    259 X0000259               0              0.43258845
    260 X0000260               0              0.43258845
    261 X0000261               0              0.21034771
    262 X0000262               0              0.21034771
    263 X0000263               0              0.58531746
    264 X0000264               0              0.58531746
    265 X0000265               0              0.67701758
    266 X0000266               0              0.20459078
    267 X0000267               0              0.20459078
    268 X0000268               0              0.31794367
    269 X0000269               0              0.31794367
    270 X0000270               0              0.29253526
    271 X0000271               0              0.29253526
    272 X0000272               0              0.25873097
    273 X0000273               0              0.25873097
    274 X0000274               0              0.22464474
    275 X0000275               0              0.22464474
    276 X0000276               0              0.25810741
    277 X0000277               0              0.25810741
    278 X0000278               0              0.56450833
    279 X0000279               0              0.56450833
    280 X0000280               0              0.46331181
    281 X0000281               0              0.46331181
    282 X0000282               0              0.19697777
    283 X0000283               1              0.54117907
    284 X0000284               0              0.54117907
    285 X0000285               0               0.2880977
    286 X0000286               0               0.2880977
